c  simple_cnf_7.cnf
c
p cnf 11 22
-1 -2 0
1 2 0
-2 -3 4 0
2 -4 0
3 -4 0
-3 -5 0
3 5 0
-1 -5 6 0
1 -6 0
5 -6 0
6 6 -7 0
-6 7 0
-6 7 0
-3 -8 0
3 8 0
-8 -9 10 0
8 -10 0
9 -10 0
7 10 -11 0
-7 11 0
-10 11 0
11 0
